Min
XD1 + 2XD2 + 3XD3 + 4XD4 + 5XD5 + 6XD6 
subject to
唯一约束:
XD5 + XD6 = 1
Xg1 + Xg2 + Xg3 = 1
Xh1 + Xh2 = 1
Xi1 + Xi2 = 1
Xj1 + Xj2 = 1
Xk2 + Xk3 + Xk4 = 1
Xl2 + Xl3 = 1
Xm2 + Xm3 = 1
Xn3 + Xn4 = 1
Xo3 + Xo4 + Xo5 = 1
Xp2 + Xp3 + Xp4 + Xp5 = 1
Xq4 + Xq5 = 1
顺序约束:
Xg1 + 2Xg2 + 3Xg3 - 2Xp2 - 3Xp3 - 4Xp4 - 5Xp5 <= 1
Xg1 + 2Xg2 + 3Xg3 - 2Xk2 - 3Xk3 - 4Xk4 <= 1
Xh1 + 2Xh2 - 3Xo3 - 4Xo4 - 5Xo5 <= 1
Xh1 + 2Xh2 - 2Xl2 - 3Xl3 <= 1
Xh1 + 2Xh2 - 2Xk2 - 3Xk3 - 4Xk4 <= 1
Xi1 + 2Xi2 - 2Xm2 - 3Xm3 <= 1
Xi1 + 2Xi2 - 2Xl2 - 3Xl3 <= 1
Xi1 + 2Xi2 - 2Xk2 - 3Xk3 - 4Xk4 <= 1
Xj1 + 2Xj2 - 2Xm2 - 3Xm3 <= 1
Xj1 + 2Xj2 - 2Xl2 - 3Xl3 <= 1
2Xk2 + 3Xk3 + 4Xk4 - 3Xo3 - 4Xo4 - 5Xo5 <= 1
2Xl2 + 3Xl3 - 3Xn3 - 4Xn4 <= 1
2Xm2 + 3Xm3 - 3Xn3 - 4Xn4 <= 1
3Xn3 + 4Xn4 - 4Xq4 - 5Xq5 <= 1
3Xo3 + 4Xo4 + 5Xo5 - 5XD5 - 6XD6 <= 1
2Xp2 + 3Xp3 + 4Xp4 + 5Xp5 - 5XD5 - 6XD6 <= 1
4Xq4 + 5Xq5 - 5XD5 - 6XD6 <= 1
资源约束:
Xh1 <= 2
Xi1 <= 2
Xg1 + Xj1 <= 1
Xh2 + Xl2 + Xm2 <= 2
Xi2 + Xp2 <= 2
Xg2 + Xj2 + Xk2 <= 1
Xl3 + Xm3 + Xn3 + Xo3 <= 2
Xp3 <= 2
Xg3 + Xk3 <= 1
Xn4 + Xo4 <= 2
Xp4 + Xq4 <= 2
Xk4 <= 1
Xo5 <= 2
Xp5 + Xq5 <= 2
binary
XD1
XD2
XD3
XD4
XD5
XD6
Xg1
Xg2
Xg3
Xh1
Xh2
Xi1
Xi2
Xj1
Xj2
Xk2
Xk3
Xk4
Xl2
Xl3
Xm2
Xm3
Xn3
Xn4
Xo3
Xo4
Xo5
Xp2
Xp3
Xp4
Xp5
Xq4
Xq5
end
